NAME : mar50_1000_2
COMMENT : Data set with 50 points
COMMENT : CIn-UFPE
COMMENT : Contributed by Marcelo Lacerda
TYPE : TSP
DIMENSION : 50
EDGE_WEIGHT_TYPE : EUC_2D
NODE_COORD_SECTION
1 505 51
2 434 58
3 381 65
4 784 978
5 825 391
6 792 49
7 276 501
8 214 27
9 927 143
10 775 598
11 161 158
12 539 361
13 660 937
14 137 3
15 371 200
16 785 126
17 726 717
18 717 557
19 957 531
20 880 286
21 136 11
22 559 180
23 401 333
24 598 204
25 349 233
26 418 253
27 231 167
28 467 596
29 877 221
30 922 757
31 790 405
32 199 952
33 145 966
34 141 149
35 576 432
36 279 765
37 564 127
38 804 307
39 543 790
40 149 453
41 715 838
42 680 871
43 474 393
44 317 460
45 392 797
46 101 547
47 471 541
48 842 581
49 369 703
50 48 177
EOF
